Te1 Pb1                                 
   1.00000000000000     
    -3.2270500000000002   -3.2270500000000002    0.0000000000000000
    -3.2270500000000002    0.0000000000000000   -3.2270500000000002
     0.0000000000000000   -3.2270500000000002   -3.2270500000000002
   Pb   Te
     1     1
Direct
  0.0000000000000000  0.0000000000000000  0.0000000000000000
  0.5000000000000000  0.5000000000000000  0.5000000000000000
 
  0.00000000E+00  0.00000000E+00  0.00000000E+00
  0.00000000E+00  0.00000000E+00  0.00000000E+00
